  &GLOBAL
   PRINT_LEVEL  low
   PROJECT_NAME nvt
   RUN_TYPE  MD
 &END GLOBAL
 &MOTION
   &MD
     ENSEMBLE  NVT
     STEPS  2000000
     TIMESTEP     1.9999999999999998E-01
     STEP_START_VAL  1
     TIME_START_VAL     1.0000000000000532E+03
     ECONS_START_VAL    -4.1925455423883307E+02
     TEMPERATURE     500
     &THERMOSTAT
       TYPE  CSVR
       &CSVR
         TIMECON     4.9999999999999993E+01
         &THERMOSTAT_ENERGY
               9.2587131990492377E-01
         &END THERMOSTAT_ENERGY
         &RNG_INIT
Wiener process for Thermostat # 1        1 F T F   6.4312924954982986E-01        1923363027.0        4071071824.0        3937778419.0         201790667.0         649165522.0        3009148713.0             12345.0             12345.0             12345.0             12345.0             12345.0             12345.0             12345.0             12345.0             12345.0             12345.0             12345.0             12345.0
         &END RNG_INIT
       &END CSVR
     &END THERMOSTAT
     &AVERAGES  T
       &RESTART_AVERAGES
         ITIMES_START  1
         AVECPU     4.4138978854071222E+00
         AVEHUGONIOT     0.0000000000000000E+00
         AVETEMP_BARO     0.0000000000000000E+00
         AVEPOT    -4.2019873010156880E+02
         AVEKIN     1.1714713312769548E-01
         AVETEMP     4.7425762456714602E+02
         AVEKIN_QM     0.0000000000000000E+00
         AVETEMP_QM     0.0000000000000000E+00
         AVEVOL     5.9704945457046897E+03
         AVECELL_A     1.8141370875702219E+01
         AVECELL_B     1.8141370875702219E+01
         AVECELL_C     1.8141370875702219E+01
         AVEALPHA     9.0000000000000000E+01
         AVEBETA     9.0000000000000000E+01
         AVEGAMMA     9.0000000000000000E+01
         AVE_ECONS    -3.1019094897425181E-01
         AVE_PRESS     0.0000000000000000E+00
         AVE_PXX     0.0000000000000000E+00
       &END RESTART_AVERAGES
     &END AVERAGES
   &END MD
  &FREE_ENERGY
    &METADYN
      USE_PLUMED .TRUE.
      PLUMED_INPUT_FILE ./plumed.dat
    &END METADYN
  &END FREE_ENERGY
   &PRINT
     &TRAJECTORY  SILENT
       FORMAT  PDB
       &EACH
         MD  20
       &END EACH
     &END TRAJECTORY
     &RESTART  SILENT
       BACKUP_COPIES  1
       &EACH
         MD  20
       &END EACH
     &END RESTART
     &RESTART_HISTORY  SILENT
       &EACH
         MD  20000
       &END EACH
     &END RESTART_HISTORY
   &END PRINT
  &CONSTRAINT
    &FIXED_ATOMS
      COMPONENTS_TO_FIX XYZ
      LIST 1 2 3 4 5 6 7 8 9 10 11 12 13 14 15 16 17 18 19 20 21 22 23
    &END FIXED_ATOMS
  &END CONSTRAINT
 &END MOTION
 &FORCE_EVAL
   METHOD  QS
   &DFT
     BASIS_SET_FILE_NAME BASIS_MOLOPT
     POTENTIAL_FILE_NAME POTENTIAL
     MULTIPLICITY  1
     CHARGE  1
     PLUS_U_METHOD  MULLIKEN
     &SCF
       MAX_SCF  200
       EPS_SCF     1.0000000000000001E-05
       &OT  T
         MINIMIZER  CG
         PRECONDITIONER  FULL_SINGLE_INVERSE
       &END OT
       &OUTER_SCF  T
         EPS_SCF     1.0000000000000001E-05
         MAX_SCF  20
       &END OUTER_SCF
       &PRINT
         &RESTART  SILENT
           BACKUP_COPIES  1
         &END RESTART
       &END PRINT
     &END SCF
     &QS
       EPS_DEFAULT     1.0000000000000000E-10
       EXTRAPOLATION  ASPC
       EXTRAPOLATION_ORDER  3
     &END QS
     &MGRID
       CUTOFF     4.5000000000000000E+02
       REL_CUTOFF     6.0000000000000000E+01
     &END MGRID
     &XC
       DENSITY_CUTOFF     1.0000000000000000E-10
       GRADIENT_CUTOFF     1.0000000000000000E-10
       TAU_CUTOFF     1.0000000000000000E-10
       &XC_FUNCTIONAL  NO_SHORTCUT
         &PBE  T
         &END PBE
       &END XC_FUNCTIONAL
       &VDW_POTENTIAL
         POTENTIAL_TYPE  PAIR_POTENTIAL
         &PAIR_POTENTIAL
           TYPE  DFTD3
           PARAMETER_FILE_NAME dftd3.dat
           REFERENCE_FUNCTIONAL PBE
         &END PAIR_POTENTIAL
       &END VDW_POTENTIAL
     &END XC
     &POISSON
       POISSON_SOLVER  PERIODIC
       PERIODIC  XYZ
     &END POISSON
   &END DFT
   &SUBSYS
     &CELL
       A     9.5999999999999996E+00    0.0000000000000000E+00    0.0000000000000000E+00
       B     0.0000000000000000E+00    9.5999999999999996E+00    0.0000000000000000E+00
       C     0.0000000000000000E+00    0.0000000000000000E+00    9.5999999999999996E+00
       PERIODIC  XYZ
       MULTIPLE_UNIT_CELL  1 1 1
     &END CELL
     &COORD
C   -1.6950965113230476E+00    9.6014357758586844E+00    2.2672094245180476E+00
C   -6.2149336416718270E-01    9.8950561666604067E+00    3.0352037287014615E+00
C    5.1971368718080535E-01    7.9724378720785571E+00    2.2435236784467660E+00
C   -5.2217502866619825E-01    7.6373566542284577E+00    1.4243271622053650E+00
C   -1.6732931375221856E+00    8.4348715071602207E+00    1.4792201842186259E+00
H   -2.4996816638175101E+00    1.0313591354112397E+01    2.2915584454139108E+00
H   -6.1651113560724768E-01    1.0810355425520498E+01    3.6033929296858123E+00
H    1.4973304979175424E+00    7.4639123384206698E+00    2.1999974703306662E+00
H   -4.6002180803751408E-01    6.7177878723772864E+00    8.4726036337270594E-01
H   -2.3080729203821568E+00    8.5488367312544931E+00    5.8201335545666866E-01
N    4.8914895287935428E-01    9.0760002221189300E+00    3.0258968147671976E+00
C    1.6357999301504089E+00    9.3901972541862175E+00    3.9842301316560640E+00
H    2.5127818994712632E+00    8.8113369006218605E+00    3.6488239609006570E+00
H    1.8751668466154670E+00    1.0454468469373380E+01    3.9592334318665041E+00
C    1.2589382266513474E+00    9.0331293104343722E+00    5.4258495239046773E+00
H    3.6115700276593721E-01    9.6493904586778161E+00    5.6412252037750354E+00
H    9.6370792235351843E-01    7.9789936493183777E+00    5.5205535112179795E+00
C    2.3738333714474620E+00    9.3852771107983397E+00    6.4552845316130769E+00
H    2.6829543949121821E+00    1.0420803044556420E+01    6.2834695309504891E+00
H    3.2935614590005970E+00    8.7727622530856184E+00    6.3216179565110719E+00
C    1.8288204266548185E+00    9.2618672360674523E+00    7.8735480320737716E+00
H    8.7794737788402166E-01    9.8141323916558143E+00    7.9926010611619009E+00
H    1.7825073132156424E+00    8.1869598028214376E+00    8.0998784666765147E+00
S    2.8947849369265790E+00    1.0055508450142403E+01    9.1258275051710473E+00
O    3.4908181459774212E+00    1.1311265003347494E+01    8.5363538484103056E+00
O    2.1654875089153136E+00    1.0039378480812189E+01    1.0399530191704201E+01
O    4.2311669063900332E+00    9.1364536422929650E+00    9.2025271318124897E+00
H    4.2530200183233813E+00    8.1590865776149553E+00    9.3263071353500102E+00
N    1.0099887046891634E+01    4.4696842350758228E+00    3.5668173484358343E+00
O    1.0957723639219948E+01    4.6278867305916709E+00    2.7047033962272358E+00
O    9.1780026575334421E+00    3.7029049467229909E+00    3.5887204339957601E+00
O    1.0027542843270583E+01    5.5640597645259797E+00    4.5383247646139813E+00
H    9.2358916570770724E+00    5.4757641918844522E+00    5.1439866559831842E+00
N    6.6691900354056823E+00    1.4168528946068877E+00    7.0991059140245323E+00
O    7.0700271283148037E+00    2.0077558004313834E+00    8.1861132253110807E+00
O    7.3484581930272181E+00    7.6714393742581621E-01    6.3067180582908771E+00
O    5.3959454823212862E+00    1.3601720619098174E+00    6.7146705145136414E+00
H    4.7310795603948836E+00    1.7283239014470491E+00    7.3703321479944961E+00
N    4.2540537508531182E+00    5.2180552804343030E+00    5.3302984879663029E+00
O    4.0714363662200617E+00    6.4346646821513147E+00    5.4283888379849810E+00
O    4.6596743364952404E+00    4.4971748199242061E+00    4.4145314904184625E+00
O    4.2746839957524303E+00    4.4771509866019441E+00    6.5781729349313389E+00
H    4.3247102568056297E+00    5.2204203205571043E+00    7.2270448018478337E+00
N    4.4018728862639342E+00    5.5060000261983104E+00    5.2771816910992397E-01
O    4.8222145987417937E+00    4.3842467746680347E+00    4.7760490500196323E-01
O    4.1223232696778647E+00    6.2276819878348615E+00   -4.1494717918566282E-01
O    4.3473687291782301E+00    6.1253453577413710E+00    1.8389402068012386E+00
H    4.5481356105089796E+00    5.4053423785723131E+00    2.5117256948848947E+00
N   -1.6471235546205216E+00    5.5050098345809806E+00    7.7583300609331847E+00
O   -1.0566000606450425E+00    6.5874873574060411E+00    7.9675182582249233E+00
O   -2.1838239786735749E+00    5.2092991916343747E+00    6.7163337374521150E+00
O   -1.8742605679388151E+00    4.6700646333252118E+00    8.8884648758107687E+00
H   -2.2775154080555544E+00    3.7721723847876376E+00    8.6690130629418931E+00
     &END COORD
     &VELOCITY
           3.4002232146220315E-04    2.9999659327857288E-04   -2.5177015306295289E-04
          -2.0040521435443144E-04    2.7198654876272178E-04   -5.2890915133379479E-05
          -1.9609022555382280E-04   -2.5045499995202195E-04   -1.4611073946922462E-04
           3.9611772631080470E-05   -6.4492371615185501E-05   -4.9099120151173440E-05
          -3.3012837447256250E-05   -1.5407272422813872E-04    5.0392171769042059E-05
           3.1928006158244110E-04    6.0921443962357502E-04   -4.2539483613264641E-04
          -4.0738388663338779E-04    3.3470912116879106E-05   -1.7256047222297078E-04
          -2.4233617873875538E-04   -3.1845571289889257E-04    6.9164196726466810E-04
          -3.3324357424973695E-04    2.1031494437345988E-04   -4.6434532002065837E-04
           1.2553683403152007E-03    1.4090089029889111E-03   -2.0637717987561209E-04
           2.4541293267986963E-05    1.7389514566952476E-04   -1.8447834622827656E-04
           5.8575703666254260E-05   -1.1358424342814476E-04   -1.6758855035649899E-04
           2.0637996408361808E-04    3.2835943678260706E-04   -3.6554428265148542E-04
          -2.3143970664550075E-04   -3.9421682601072843E-04    5.1334847857062600E-04
           1.8097116019249714E-04   -1.4412940110767495E-05    5.9700433520662708E-05
           8.5491310260748176E-05   -1.8436672562631535E-06   -1.8156099023661316E-04
          -3.7382285799669610E-04    9.3251773745567582E-05   -4.6469670808585315E-04
           6.5768331931243950E-05    1.2399248067639123E-04   -1.2570158738014478E-04
          -4.2820303431561317E-04   -7.6687398851176485E-05    4.3247772497387820E-04
           1.5427773111140655E-04   -3.2702643360506023E-04    5.7642102759251427E-05
           6.9111609526015648E-05   -2.4559152310303597E-05    2.8177248411246825E-05
          -2.4197969557651671E-04   -7.6732303565737810E-05   -6.4418366988110739E-04
           7.4017013626713121E-04    1.0507970292093199E-04    9.3213941613630772E-04
          -2.3900284139737416E-05    1.4329257901944087E-04    8.1646982022804255E-06
          -3.4282995162025770E-04    8.6724147947566922E-05   -1.1573575048471882E-04
           1.4086580613855684E-04    2.1275718842937510E-04   -2.7802805582182686E-04
           2.0832387640316141E-05   -1.1862501097655293E-04    4.8147263485076481E-05
           2.6963567654049756E-04   -6.4518527008862285E-05    1.5261999652999253E-04
          -2.3350016592749382E-04    5.9408238198805642E-05   -3.2186585122430893E-04
           1.2814721557398144E-04   -2.9895856882570366E-05    1.8078693092389689E-04
           2.2485136772438838E-04    5.6921597294323667E-05   -8.3157632186147971E-05
           7.8810174173954853E-05   -3.7997471390661594E-04   -9.2249101714530730E-06
           1.7503814919616603E-04    2.2016366654781551E-03   -3.3400507347662031E-04
          -2.1337060066866669E-04   -2.6245538432917751E-04    3.5613156261230997E-04
           3.2705338028201966E-05    2.2631000906325597E-04   -7.0411516097694692E-05
          -5.3095507804111692E-04    1.8751019763647094E-04   -1.0336287681980501E-04
           1.2080598774507653E-04   -1.4808343693207133E-04    9.4940979730614449E-05
           7.4175604184939587E-05   -6.2029440026563527E-04    7.4351040952416497E-04
          -9.0292748905552382E-04   -1.2365251948957031E-04    9.8923095213449377E-05
           1.1466730723262123E-04    2.3407531744031943E-04   -3.6908433009130315E-05
           1.7944553165686724E-04    3.4063664441751388E-04   -1.0360660521234031E-04
           8.3665549700563110E-05   -2.1250055326493613E-04    1.2130547039149098E-04
          -7.7518729142709599E-04   -8.1007644802556431E-04    6.4319502675738043E-04
           1.3059668798905393E-04   -9.3036543045883484E-05    2.3482351013361599E-05
           9.6579169826369572E-05   -2.5789775194006527E-04    3.6226735975890793E-04
          -2.0500648598943593E-04   -1.9909110907269031E-05   -9.8533802774472589E-05
          -2.1840569484755438E-04   -2.1897099242612081E-05    1.4578445666769621E-04
           2.1675980256771573E-04    9.0631008721451579E-04    6.2757380012226215E-04
          -4.8107462544761808E-04   -1.9106247780449514E-04   -1.2180097938984125E-04
           2.6040846155921999E-04   -7.3639320418317775E-06   -3.2260127097005932E-04
           2.8182349059110693E-05   -7.4273343449797328E-05   -2.0112689266300876E-04
           7.6661169808803971E-05   -5.1791202926735735E-04   -5.2764266214802764E-05
           5.6112028533775952E-04   -1.1791054037076530E-03    2.9515532572699152E-05
     &END VELOCITY
     &KIND O
       BASIS_SET DZVP-MOLOPT-GTH-q6
       ELEMENT O
       POTENTIAL GTH-PBE
       &POTENTIAL
 2 4
  0.2445543000000000E+00 2 -0.1666721480000000E+02  0.2487311320000000E+01
 2
  0.2209559200000000E+00 1  0.1833745811000000E+02
  0.2113324700000000E+00 0
         # Potential name:  GTH-PBE  for symbol:  O
         # Potential read from the potential filename: POTENTIAL
       &END POTENTIAL
     &END KIND
     &KIND N
       BASIS_SET DZVP-MOLOPT-GTH-q5
       ELEMENT N
       POTENTIAL GTH-PBE
       &POTENTIAL
 2 3
  0.2837905100000000E+00 2 -0.1241522559000000E+02  0.1868095920000000E+01
 2
  0.2554050000000000E+00 1  0.1363026257000000E+02
  0.2454945300000000E+00 0
         # Potential name:  GTH-PBE  for symbol:  N
         # Potential read from the potential filename: POTENTIAL
       &END POTENTIAL
     &END KIND
     &KIND H
       BASIS_SET DZVP-MOLOPT-GTH-q1
       ELEMENT H
       POTENTIAL GTH-PBE
       &POTENTIAL
 1
  0.2000000000000000E+00 2 -0.4178900440000000E+01  0.7244633100000000E+00
 0
       &END POTENTIAL
     &END KIND
     &KIND C
       BASIS_SET DZVP-MOLOPT-GTH-q4
       ELEMENT C
       POTENTIAL GTH-PBE
       &POTENTIAL
 2 2
  0.3384712400000000E+00 2 -0.8803673979999999E+01  0.1339210850000000E+01
 2
  0.3025757500000000E+00 1  0.9622486650000001E+01
  0.2915069400000000E+00 0
         # Potential name:  GTH-PBE  for symbol:  C
         # Potential read from the potential filename: POTENTIAL
       &END POTENTIAL
     &END KIND
     &KIND S
       BASIS_SET DZVP-MOLOPT-GTH-q6
       ELEMENT S
       POTENTIAL GTH-PBE
       &POTENTIAL
 2 4
  0.4200000000000000E+00 1 -0.5986260380000000E+01
 2
  0.3648203500000000E+00 2  0.1314354448000000E+02 -0.4241830450000000E+01
  0.5476179570000000E+01
  0.4094804800000000E+00 1  0.3700890570000000E+01
       &END POTENTIAL
     &END KIND
     &TOPOLOGY
       NUMBER_OF_ATOMS  53
       CONN_FILE_FORMAT  OFF
       MULTIPLE_UNIT_CELL  1 1 1
       &GENERATE
         REORDER  T
       &END GENERATE
     &END TOPOLOGY
   &END SUBSYS
 &END FORCE_EVAL
